50
100
99
99
98
96
95
93
92
92
89
87
85
85
82
80
72
71
68
68
64
64
63
61
59
59
57
57
57
55
55
52
52
51
49
48
47
47
40
39
38
37
29
28
28
22
22
19
17
16
9
4
